demo_smt/2.smt2
(set-logic BV)
(declare-fun a () (_ BitVec 4))
(declare-fun b () (_ BitVec 4))

;(assert (exists ((x (_ BitVec 4))) (bvult a  (bvshl b x))))


;(apply (using-params qe :qe-nonlinear true))
(get-qe
  (exists ((x (_ BitVec 4))) (bvult a  (bvshl b x))) )
